p edge 80 1238
e 1 5
e 1 6
e 1 14
e 1 15
e 1 16
e 1 19
e 1 20
e 1 21
e 1 28
e 1 29
e 1 30
e 1 31
e 1 32
e 1 33
e 1 34
e 1 35
e 1 38
e 1 39
e 1 42
e 1 44
e 1 48
e 1 51
e 1 55
e 1 58
e 1 59
e 1 64
e 1 68
e 1 69
e 1 70
e 1 71
e 1 75
e 1 78
e 1 79
e 2 3
e 2 4
e 2 6
e 2 7
e 2 8
e 2 10
e 2 12
e 2 14
e 2 17
e 2 18
e 2 23
e 2 26
e 2 27
e 2 29
e 2 30
e 2 41
e 2 42
e 2 43
e 2 45
e 2 48
e 2 53
e 2 55
e 2 58
e 2 59
e 2 65
e 2 66
e 2 67
e 2 71
e 2 74
e 2 75
e 2 79
e 3 4
e 3 10
e 3 14
e 3 16
e 3 17
e 3 19
e 3 20
e 3 22
e 3 24
e 3 25
e 3 27
e 3 29
e 3 31
e 3 36
e 3 39
e 3 41
e 3 43
e 3 44
e 3 46
e 3 47
e 3 48
e 3 49
e 3 53
e 3 56
e 3 58
e 3 60
e 3 62
e 3 64
e 3 65
e 3 66
e 3 68
e 3 72
e 3 77
e 3 79
e 3 80
e 4 6
e 4 9
e 4 11
e 4 14
e 4 18
e 4 20
e 4 22
e 4 23
e 4 25
e 4 27
e 4 31
e 4 32
e 4 33
e 4 35
e 4 36
e 4 37
e 4 38
e 4 39
e 4 42
e 4 43
e 4 45
e 4 50
e 4 54
e 4 56
e 4 58
e 4 59
e 4 61
e 4 63
e 4 64
e 4 67
e 4 68
e 4 69
e 4 71
e 4 74
e 4 75
e 4 79
e 5 7
e 5 10
e 5 12
e 5 15
e 5 19
e 5 22
e 5 28
e 5 29
e 5 31
e 5 32
e 5 33
e 5 36
e 5 37
e 5 43
e 5 44
e 5 45
e 5 47
e 5 53
e 5 54
e 5 57
e 5 58
e 5 59
e 5 60
e 5 61
e 5 63
e 5 64
e 5 65
e 5 66
e 5 75
e 5 79
e 5 80
e 6 7
e 6 12
e 6 16
e 6 17
e 6 19
e 6 21
e 6 28
e 6 30
e 6 31
e 6 32
e 6 34
e 6 38
e 6 44
e 6 45
e 6 46
e 6 48
e 6 50
e 6 53
e 6 54
e 6 55
e 6 56
e 6 57
e 6 60
e 6 62
e 6 66
e 6 71
e 6 72
e 6 73
e 6 79
e 6 80
e 7 9
e 7 10
e 7 13
e 7 16
e 7 17
e 7 24
e 7 26
e 7 28
e 7 29
e 7 34
e 7 35
e 7 36
e 7 37
e 7 38
e 7 39
e 7 44
e 7 45
e 7 46
e 7 49
e 7 50
e 7 56
e 7 57
e 7 60
e 7 67
e 7 80
e 8 12
e 8 17
e 8 18
e 8 20
e 8 22
e 8 23
e 8 27
e 8 29
e 8 35
e 8 37
e 8 43
e 8 45
e 8 48
e 8 52
e 8 56
e 8 59
e 8 60
e 8 62
e 8 63
e 8 66
e 8 70
e 8 71
e 8 78
e 9 11
e 9 12
e 9 13
e 9 16
e 9 17
e 9 18
e 9 23
e 9 28
e 9 31
e 9 35
e 9 40
e 9 49
e 9 51
e 9 57
e 9 60
e 9 61
e 9 66
e 9 69
e 9 75
e 9 77
e 9 78
e 10 11
e 10 16
e 10 20
e 10 26
e 10 27
e 10 28
e 10 30
e 10 35
e 10 39
e 10 40
e 10 46
e 10 47
e 10 48
e 10 58
e 10 60
e 10 65
e 10 69
e 10 70
e 10 73
e 10 74
e 10 76
e 10 78
e 11 12
e 11 15
e 11 16
e 11 17
e 11 18
e 11 21
e 11 23
e 11 26
e 11 27
e 11 28
e 11 29
e 11 31
e 11 33
e 11 34
e 11 37
e 11 38
e 11 39
e 11 42
e 11 43
e 11 49
e 11 51
e 11 55
e 11 56
e 11 58
e 11 59
e 11 64
e 11 65
e 11 68
e 11 69
e 11 74
e 12 15
e 12 16
e 12 17
e 12 19
e 12 20
e 12 21
e 12 22
e 12 32
e 12 33
e 12 35
e 12 37
e 12 38
e 12 39
e 12 40
e 12 43
e 12 44
e 12 45
e 12 46
e 12 47
e 12 50
e 12 55
e 12 59
e 12 60
e 12 61
e 12 63
e 12 78
e 13 18
e 13 19
e 13 23
e 13 24
e 13 28
e 13 33
e 13 34
e 13 36
e 13 38
e 13 39
e 13 40
e 13 41
e 13 43
e 13 44
e 13 45
e 13 46
e 13 47
e 13 48
e 13 51
e 13 55
e 13 58
e 13 60
e 13 62
e 13 66
e 13 69
e 13 71
e 13 72
e 13 74
e 13 78
e 13 79
e 14 15
e 14 18
e 14 19
e 14 21
e 14 22
e 14 24
e 14 28
e 14 29
e 14 31
e 14 33
e 14 36
e 14 39
e 14 41
e 14 42
e 14 43
e 14 45
e 14 49
e 14 52
e 14 53
e 14 54
e 14 59
e 14 66
e 14 68
e 14 71
e 14 80
e 15 18
e 15 21
e 15 22
e 15 23
e 15 24
e 15 25
e 15 26
e 15 30
e 15 31
e 15 33
e 15 38
e 15 39
e 15 41
e 15 42
e 15 44
e 15 51
e 15 57
e 15 58
e 15 59
e 15 61
e 15 63
e 15 70
e 15 77
e 15 78
e 15 79
e 16 17
e 16 18
e 16 19
e 16 20
e 16 21
e 16 25
e 16 26
e 16 28
e 16 31
e 16 34
e 16 37
e 16 39
e 16 40
e 16 42
e 16 44
e 16 49
e 16 50
e 16 51
e 16 52
e 16 55
e 16 58
e 16 62
e 16 65
e 16 68
e 16 69
e 16 70
e 16 74
e 16 77
e 16 79
e 16 80
e 17 19
e 17 21
e 17 38
e 17 39
e 17 40
e 17 41
e 17 42
e 17 43
e 17 48
e 17 53
e 17 54
e 17 62
e 17 63
e 17 64
e 17 65
e 17 67
e 17 69
e 17 72
e 17 76
e 17 77
e 17 80
e 18 19
e 18 22
e 18 25
e 18 26
e 18 29
e 18 31
e 18 33
e 18 36
e 18 37
e 18 38
e 18 40
e 18 43
e 18 45
e 18 46
e 18 49
e 18 51
e 18 53
e 18 56
e 18 57
e 18 59
e 18 61
e 18 62
e 18 65
e 18 67
e 18 68
e 18 69
e 18 71
e 18 72
e 18 74
e 18 76
e 18 77
e 19 20
e 19 21
e 19 25
e 19 36
e 19 38
e 19 42
e 19 44
e 19 46
e 19 48
e 19 50
e 19 53
e 19 56
e 19 61
e 19 62
e 19 73
e 19 75
e 19 80
e 20 21
e 20 23
e 20 24
e 20 25
e 20 26
e 20 27
e 20 29
e 20 32
e 20 34
e 20 37
e 20 40
e 20 41
e 20 42
e 20 48
e 20 49
e 20 50
e 20 54
e 20 59
e 20 60
e 20 62
e 20 65
e 20 68
e 20 71
e 20 73
e 20 74
e 20 80
e 21 23
e 21 25
e 21 27
e 21 28
e 21 32
e 21 33
e 21 34
e 21 36
e 21 45
e 21 46
e 21 49
e 21 52
e 21 53
e 21 59
e 21 61
e 21 62
e 21 63
e 21 65
e 21 68
e 21 69
e 21 72
e 21 73
e 21 74
e 21 75
e 21 77
e 22 29
e 22 30
e 22 32
e 22 39
e 22 43
e 22 44
e 22 45
e 22 47
e 22 50
e 22 52
e 22 55
e 22 61
e 22 64
e 22 66
e 22 70
e 22 72
e 22 78
e 22 79
e 23 25
e 23 29
e 23 41
e 23 45
e 23 47
e 23 50
e 23 53
e 23 61
e 23 63
e 23 68
e 23 70
e 23 71
e 23 74
e 23 75
e 23 76
e 23 77
e 23 78
e 24 29
e 24 32
e 24 33
e 24 35
e 24 36
e 24 38
e 24 40
e 24 42
e 24 45
e 24 46
e 24 48
e 24 49
e 24 55
e 24 56
e 24 58
e 24 62
e 24 63
e 24 65
e 24 71
e 24 73
e 24 74
e 24 76
e 24 77
e 24 78
e 25 29
e 25 30
e 25 31
e 25 32
e 25 37
e 25 38
e 25 42
e 25 51
e 25 53
e 25 55
e 25 56
e 25 57
e 25 59
e 25 62
e 25 63
e 25 64
e 25 65
e 25 66
e 25 71
e 25 73
e 25 74
e 25 76
e 25 77
e 25 78
e 26 27
e 26 28
e 26 30
e 26 35
e 26 40
e 26 42
e 26 43
e 26 44
e 26 47
e 26 48
e 26 51
e 26 52
e 26 53
e 26 55
e 26 56
e 26 57
e 26 59
e 26 60
e 26 61
e 26 64
e 26 67
e 26 69
e 26 73
e 26 78
e 27 30
e 27 32
e 27 34
e 27 35
e 27 38
e 27 39
e 27 44
e 27 46
e 27 53
e 27 54
e 27 55
e 27 56
e 27 58
e 27 60
e 27 72
e 27 73
e 27 74
e 27 76
e 27 77
e 27 80
e 28 30
e 28 31
e 28 32
e 28 35
e 28 36
e 28 45
e 28 48
e 28 49
e 28 54
e 28 60
e 28 66
e 28 67
e 28 70
e 28 72
e 28 73
e 28 80
e 29 32
e 29 37
e 29 38
e 29 39
e 29 42
e 29 44
e 29 45
e 29 48
e 29 49
e 29 51
e 29 53
e 29 55
e 29 56
e 29 60
e 29 66
e 29 68
e 29 76
e 29 79
e 30 31
e 30 33
e 30 35
e 30 36
e 30 37
e 30 38
e 30 40
e 30 42
e 30 44
e 30 46
e 30 48
e 30 49
e 30 51
e 30 52
e 30 54
e 30 55
e 30 57
e 30 59
e 30 61
e 30 62
e 30 63
e 30 64
e 30 66
e 30 67
e 30 69
e 30 72
e 30 75
e 30 78
e 31 34
e 31 36
e 31 37
e 31 38
e 31 39
e 31 42
e 31 45
e 31 47
e 31 51
e 31 53
e 31 55
e 31 59
e 31 61
e 31 62
e 31 63
e 31 64
e 31 65
e 31 67
e 31 72
e 31 73
e 31 74
e 31 79
e 32 36
e 32 38
e 32 44
e 32 45
e 32 47
e 32 49
e 32 50
e 32 52
e 32 53
e 32 56
e 32 57
e 32 60
e 32 65
e 32 68
e 32 70
e 32 72
e 32 74
e 32 75
e 32 76
e 32 78
e 32 80
e 33 37
e 33 44
e 33 49
e 33 50
e 33 51
e 33 54
e 33 57
e 33 61
e 33 62
e 33 63
e 33 65
e 33 66
e 33 73
e 33 76
e 33 77
e 34 38
e 34 39
e 34 41
e 34 43
e 34 49
e 34 50
e 34 54
e 34 57
e 34 59
e 34 60
e 34 61
e 34 65
e 34 66
e 34 68
e 34 69
e 34 72
e 34 76
e 34 77
e 35 38
e 35 44
e 35 45
e 35 47
e 35 49
e 35 51
e 35 52
e 35 53
e 35 56
e 35 58
e 35 64
e 35 65
e 35 67
e 35 68
e 35 69
e 35 71
e 35 77
e 35 78
e 36 37
e 36 38
e 36 43
e 36 44
e 36 48
e 36 50
e 36 51
e 36 53
e 36 60
e 36 62
e 36 66
e 36 68
e 36 72
e 36 73
e 36 76
e 36 77
e 37 40
e 37 45
e 37 46
e 37 48
e 37 50
e 37 54
e 37 57
e 37 58
e 37 59
e 37 64
e 37 65
e 37 66
e 37 67
e 37 69
e 37 71
e 37 72
e 37 79
e 38 39
e 38 40
e 38 43
e 38 47
e 38 54
e 38 55
e 38 64
e 38 65
e 38 66
e 38 67
e 38 71
e 38 72
e 38 73
e 38 74
e 38 77
e 38 80
e 39 40
e 39 41
e 39 42
e 39 44
e 39 56
e 39 57
e 39 59
e 39 61
e 39 62
e 39 66
e 39 78
e 40 41
e 40 42
e 40 48
e 40 49
e 40 51
e 40 53
e 40 62
e 40 65
e 40 67
e 40 70
e 40 71
e 40 73
e 40 75
e 40 77
e 40 80
e 41 45
e 41 54
e 41 56
e 41 57
e 41 61
e 41 62
e 41 63
e 41 67
e 41 69
e 41 70
e 41 78
e 42 43
e 42 56
e 42 57
e 42 59
e 42 62
e 42 65
e 42 67
e 42 69
e 42 70
e 42 73
e 42 74
e 42 77
e 42 78
e 42 79
e 42 80
e 43 45
e 43 47
e 43 49
e 43 52
e 43 57
e 43 60
e 43 62
e 43 63
e 43 65
e 43 69
e 43 70
e 43 71
e 43 75
e 43 76
e 43 80
e 44 48
e 44 54
e 44 55
e 44 56
e 44 58
e 44 59
e 44 60
e 44 65
e 44 68
e 44 70
e 44 74
e 44 75
e 44 80
e 45 46
e 45 48
e 45 50
e 45 59
e 45 61
e 45 64
e 45 66
e 45 71
e 45 72
e 45 73
e 45 75
e 45 78
e 45 80
e 46 49
e 46 50
e 46 52
e 46 59
e 46 60
e 46 61
e 46 63
e 46 67
e 46 68
e 46 76
e 46 78
e 47 48
e 47 54
e 47 57
e 47 58
e 47 61
e 47 63
e 47 64
e 47 66
e 47 67
e 47 69
e 47 70
e 47 74
e 47 75
e 47 76
e 48 49
e 48 52
e 48 54
e 48 58
e 48 63
e 48 64
e 48 65
e 48 66
e 48 71
e 48 74
e 48 76
e 48 79
e 49 52
e 49 56
e 49 59
e 49 65
e 49 66
e 49 70
e 49 77
e 49 79
e 49 80
e 50 54
e 50 61
e 50 62
e 50 66
e 50 70
e 50 73
e 50 74
e 50 75
e 50 77
e 50 78
e 50 80
e 51 53
e 51 54
e 51 55
e 51 57
e 51 58
e 51 60
e 51 63
e 51 64
e 51 66
e 51 68
e 51 75
e 51 80
e 52 53
e 52 60
e 52 66
e 52 67
e 52 69
e 52 76
e 52 77
e 52 78
e 52 79
e 53 57
e 53 60
e 53 67
e 53 70
e 53 71
e 53 72
e 53 75
e 53 76
e 53 77
e 53 79
e 54 55
e 54 58
e 54 61
e 54 66
e 54 70
e 54 73
e 54 74
e 54 75
e 54 76
e 54 77
e 54 78
e 55 56
e 55 59
e 55 60
e 55 65
e 55 66
e 55 67
e 55 69
e 55 70
e 55 75
e 55 76
e 55 79
e 56 57
e 56 59
e 56 60
e 56 61
e 56 62
e 56 63
e 56 67
e 56 71
e 56 72
e 56 73
e 56 74
e 56 79
e 57 58
e 57 59
e 57 60
e 57 62
e 57 65
e 57 68
e 57 70
e 57 73
e 57 74
e 57 77
e 57 78
e 57 80
e 58 59
e 58 61
e 58 62
e 58 63
e 58 64
e 58 66
e 58 72
e 58 73
e 58 75
e 58 79
e 59 60
e 59 61
e 59 62
e 59 63
e 59 67
e 59 69
e 59 70
e 59 71
e 59 76
e 59 78
e 59 80
e 60 61
e 60 62
e 60 66
e 60 71
e 60 75
e 60 76
e 61 63
e 61 64
e 61 65
e 61 66
e 61 67
e 61 69
e 61 70
e 61 71
e 61 73
e 61 79
e 62 64
e 62 66
e 62 67
e 62 70
e 62 71
e 62 73
e 62 79
e 63 71
e 63 73
e 63 74
e 63 76
e 63 79
e 63 80
e 64 65
e 64 68
e 64 69
e 64 70
e 64 74
e 65 66
e 65 71
e 65 73
e 65 76
e 66 68
e 66 69
e 66 77
e 67 71
e 67 75
e 67 79
e 67 80
e 68 69
e 68 70
e 68 71
e 68 75
e 68 76
e 68 78
e 69 71
e 69 72
e 69 74
e 69 76
e 69 78
e 70 71
e 70 74
e 70 75
e 70 79
e 71 72
e 71 73
e 71 74
e 71 75
e 71 78
e 71 79
e 71 80
e 72 73
e 72 74
e 72 75
e 73 75
e 73 76
e 73 77
e 73 78
e 73 79
e 74 75
e 74 77
e 75 76
e 75 77
e 75 78
e 75 79
e 76 77
e 77 79
e 77 80
e 78 80